<number of tasks>
50

<cycle time>
1000

<order strength>
0.203


<task times>
1 515
2 426
3 245
4 312
5 471
6 680
7 392
8 547
9 478
10 573
11 507
12 298
13 533
14 638
15 582
16 519
17 502
18 481
19 504
20 406
21 394
22 565
23 584
24 326
25 530
26 477
27 513
28 317
29 544
30 685
31 427
32 533
33 353
34 358
35 501
36 504
37 503
38 644
39 463
40 706
41 531
42 452
43 421
44 615
45 667
46 350
47 602
48 519
49 530
50 308

<precedence relations>
1,24
1,42
2,8
2,11
3,12
3,13
4,7
4,10
6,9
7,41
8,13
8,15
8,18
9,16
10,12
10,13
10,17
11,14
12,19
12,23
13,43
14,19
14,24
15,20
15,22
16,25
18,21
18,26
20,44
22,27
22,30
23,28
24,29
26,28
26,31
27,35
27,37
27,43
28,32
28,34
28,38
28,39
29,49
30,36
31,33
34,40
34,45
36,41
36,42
36,44
38,43
41,47
41,50
42,46
44,49
45,48

<end>
